80
300
239	1
237	1
230	1
227	1
225	1
217	1
216	1
214	1
213	1
212	1
207	1
206	1
201	2
197	1
196	1
195	1
194	1
193	2
191	2
190	1
181	1
180	3
179	3
178	2
176	1
171	1
169	1
166	1
165	1
164	1
163	1
158	1
154	1
153	1
143	2
128	1
127	1
126	2
122	1
121	1
119	1
118	2
116	1
113	1
110	1
109	1
107	1
106	2
100	1
98	1
97	1
93	1
92	1
90	1
85	1
81	1
76	2
75	1
69	2
68	1
67	1
65	3
63	1
61	1
53	2
49	1
47	1
46	1
43	1
42	2
41	1
40	1
39	1
38	1
37	2
36	1
35	1
34	1
32	1
31	2
